proyfinal/src/viki/013/experimentInOfficeAgust.take6.output/5d9c2e46-e450-4980-b683-5bcedfcfdf17.als.out
Reading from standard input... Use '--help' for help.
============================[ Problem Statistics ]=============================
|                                                                             |
|  Number of variables:         87638                                         |
|  Number of clauses:          161767                                         |
|  Parse time:                   0.03 s                                       |
|                                                                             |
============================[ Search Statistics ]==============================
| Conflicts |          ORIGINAL         |          LEARNT          | Progress |
|           |    Vars  Clauses Literals |    Limit  Clauses Lit/Cl |          |
===============================================================================
|       100 |   62329   105014   262308 |    38505      100     10 | 28.879 % |
|       250 |   62328   104970   262218 |    42355      249     37 | 28.880 % |
|       475 |   62310   104896   262047 |    46591      473     37 | 28.901 % |
|       812 |   62274   104764   261695 |    51250      790     47 | 28.942 % |
|      1318 |   62247   104665   261431 |    56375     1276     68 | 28.973 % |
|      2077 |   62247   104665   261431 |    62012     2035     72 | 28.973 % |
|      3216 |   62227   104581   261238 |    68214     2972     77 | 28.995 % |
|      4924 |   51943    74388   187243 |    75035     3796     70 | 40.730 % |
|      7486 |   51600    73258   184539 |    82539     6325     70 | 41.121 % |
|     11330 |   51256    71552   180481 |    90793     9595     64 | 41.514 % |
|     17096 |   50797    69719   176111 |    99872    13709     59 | 42.038 % |
===============================================================================
restarts              : 63
conflicts             : 17446          (7807 /sec)
decisions             : 58320          (0.00 % random) (26098 /sec)
propagations          : 24148483       (10806489 /sec)
conflict literals     : 974226         (46.01 % deleted)
Memory used           : 35.40 MB
CPU time              : 2.23463 s

UNSATISFIABLE
